\ LP format - for model browsing. Use MPS format to capture full model detail.
Maximize
  0 x[0,0,0,0] + 0 x[0,0,1,0] + 0 x[0,0,2,0] + 0 x[0,0,3,0] + 0 x[0,0,4,0]
   + 0 x[0,0,5,0] + 0 x[0,1,0,0] + 0 x[0,1,1,0] + 0 x[0,1,2,0]
   + 0 x[0,1,3,0] + 0 x[0,1,4,0] + 0 x[0,1,5,0] + 0 x[1,0,0,0]
   + 0 x[1,0,1,0] + 0 x[1,0,2,0] + 0 x[1,0,3,0] + 0 x[1,0,4,0]
   + 0 x[1,0,5,0] + 0 x[1,1,0,0] + 0 x[1,1,1,0] + 0 x[1,1,2,0]
   + 0 x[1,1,3,0] + 0 x[1,1,4,0] + 0 x[1,1,5,0] + 0 y[0,0,0] + 5 y[0,0,1]
   + 8 y[0,0,2] + y[0,0,3] + 4 y[0,0,4] + 0 y[0,0,5] + 0 y[0,1,0]
   + 5 y[0,1,1] + 8 y[0,1,2] + y[0,1,3] + 4 y[0,1,4] + 0 y[0,1,5]
   + 0 y[1,0,0] + 5 y[1,0,1] + 8 y[1,0,2] + y[1,0,3] + 4 y[1,0,4]
   + 0 y[1,0,5] + 0 y[1,1,0] + 5 y[1,1,1] + 8 y[1,1,2] + y[1,1,3]
   + 4 y[1,1,4] + 0 y[1,1,5] + 0 u[0,0,0] + 0 u[0,1,0] + 0 u[1,0,0]
   + 0 u[1,1,0]
Subject To
 Constraint_3.2a: x[0,0,0,1] + x[0,0,0,2] + x[0,0,0,3] + x[0,0,0,4]
   - x[0,0,1,5] - x[0,0,2,5] - x[0,0,3,5] - x[0,0,4,5] + x[0,1,0,1]
   + x[0,1,0,2] + x[0,1,0,3] + x[0,1,0,4] - x[0,1,1,5] - x[0,1,2,5]
   - x[0,1,3,5] - x[0,1,4,5] = 0
 Constraint_3.2b: x[0,0,0,1] + x[0,0,0,2] + x[0,0,0,3] + x[0,0,0,4]
   + x[0,0,0,5] + x[0,1,0,1] + x[0,1,0,2] + x[0,1,0,3] + x[0,1,0,4]
   + x[0,1,0,5] = 2
 Constraint_3.2c: x[0,0,0,5] + x[0,0,1,5] + x[0,0,2,5] + x[0,0,3,5]
   + x[0,0,4,5] + x[0,1,0,5] + x[0,1,1,5] + x[0,1,2,5] + x[0,1,3,5]
   + x[0,1,4,5] = 2
 Constraint_3.2a: x[1,0,0,1] + x[1,0,0,2] + x[1,0,0,3] + x[1,0,0,4]
   - x[1,0,1,5] - x[1,0,2,5] - x[1,0,3,5] - x[1,0,4,5] + x[1,1,0,1]
   + x[1,1,0,2] + x[1,1,0,3] + x[1,1,0,4] - x[1,1,1,5] - x[1,1,2,5]
   - x[1,1,3,5] - x[1,1,4,5] = 0
 Constraint_3.2b: x[1,0,0,1] + x[1,0,0,2] + x[1,0,0,3] + x[1,0,0,4]
   + x[1,0,0,5] + x[1,1,0,1] + x[1,1,0,2] + x[1,1,0,3] + x[1,1,0,4]
   + x[1,1,0,5] = 2
 Constraint_3.2c: x[1,0,0,5] + x[1,0,1,5] + x[1,0,2,5] + x[1,0,3,5]
   + x[1,0,4,5] + x[1,1,0,5] + x[1,1,1,5] + x[1,1,2,5] + x[1,1,3,5]
   + x[1,1,4,5] = 2
 Constraint_3.3: y[0,0,1] + y[0,1,1] + y[1,0,1] + y[1,1,1] <= 1
 Constraint_3.3: y[0,0,2] + y[0,1,2] + y[1,0,2] + y[1,1,2] <= 1
 Constraint_3.3: y[0,0,3] + y[0,1,3] + y[1,0,3] + y[1,1,3] <= 1
 Constraint_3.3: y[0,0,4] + y[0,1,4] + y[1,0,4] + y[1,1,4] <= 1
 Constraint_3.4a: x[0,0,0,1] - x[0,0,1,2] - x[0,0,1,3] - x[0,0,1,4]
   - x[0,0,1,5] + x[0,0,2,1] + x[0,0,3,1] + x[0,0,4,1] = 0
 Constraint_3.4b: x[0,0,0,1] + x[0,0,1,1] + x[0,0,2,1] + x[0,0,3,1]
   + x[0,0,4,1] - y[0,0,1] = 0
 Constraint_3.4c: x[0,0,1,1] + x[0,0,1,2] + x[0,0,1,3] + x[0,0,1,4]
   + x[0,0,1,5] - y[0,0,1] = 0
 Constraint_3.4a: x[1,0,0,1] - x[1,0,1,2] - x[1,0,1,3] - x[1,0,1,4]
   - x[1,0,1,5] + x[1,0,2,1] + x[1,0,3,1] + x[1,0,4,1] = 0
 Constraint_3.4b: x[1,0,0,1] + x[1,0,1,1] + x[1,0,2,1] + x[1,0,3,1]
   + x[1,0,4,1] - y[1,0,1] = 0
 Constraint_3.4c: x[1,0,1,1] + x[1,0,1,2] + x[1,0,1,3] + x[1,0,1,4]
   + x[1,0,1,5] - y[1,0,1] = 0
 Constraint_3.4a: x[0,0,0,2] + x[0,0,1,2] - x[0,0,2,1] - x[0,0,2,3]
   - x[0,0,2,4] - x[0,0,2,5] + x[0,0,3,2] + x[0,0,4,2] = 0
 Constraint_3.4b: x[0,0,0,2] + x[0,0,1,2] + x[0,0,2,2] + x[0,0,3,2]
   + x[0,0,4,2] - y[0,0,2] = 0
 Constraint_3.4c: x[0,0,2,1] + x[0,0,2,2] + x[0,0,2,3] + x[0,0,2,4]
   + x[0,0,2,5] - y[0,0,2] = 0
 Constraint_3.4a: x[1,0,0,2] + x[1,0,1,2] - x[1,0,2,1] - x[1,0,2,3]
   - x[1,0,2,4] - x[1,0,2,5] + x[1,0,3,2] + x[1,0,4,2] = 0
 Constraint_3.4b: x[1,0,0,2] + x[1,0,1,2] + x[1,0,2,2] + x[1,0,3,2]
   + x[1,0,4,2] - y[1,0,2] = 0
 Constraint_3.4c: x[1,0,2,1] + x[1,0,2,2] + x[1,0,2,3] + x[1,0,2,4]
   + x[1,0,2,5] - y[1,0,2] = 0
 Constraint_3.4a: x[0,0,0,3] + x[0,0,1,3] + x[0,0,2,3] - x[0,0,3,1]
   - x[0,0,3,2] - x[0,0,3,4] - x[0,0,3,5] + x[0,0,4,3] = 0
 Constraint_3.4b: x[0,0,0,3] + x[0,0,1,3] + x[0,0,2,3] + x[0,0,3,3]
   + x[0,0,4,3] - y[0,0,3] = 0
 Constraint_3.4c: x[0,0,3,1] + x[0,0,3,2] + x[0,0,3,3] + x[0,0,3,4]
   + x[0,0,3,5] - y[0,0,3] = 0
 Constraint_3.4a: x[1,0,0,3] + x[1,0,1,3] + x[1,0,2,3] - x[1,0,3,1]
   - x[1,0,3,2] - x[1,0,3,4] - x[1,0,3,5] + x[1,0,4,3] = 0
 Constraint_3.4b: x[1,0,0,3] + x[1,0,1,3] + x[1,0,2,3] + x[1,0,3,3]
   + x[1,0,4,3] - y[1,0,3] = 0
 Constraint_3.4c: x[1,0,3,1] + x[1,0,3,2] + x[1,0,3,3] + x[1,0,3,4]
   + x[1,0,3,5] - y[1,0,3] = 0
 Constraint_3.4a: x[0,0,0,4] + x[0,0,1,4] + x[0,0,2,4] + x[0,0,3,4]
   - x[0,0,4,1] - x[0,0,4,2] - x[0,0,4,3] - x[0,0,4,5] = 0
 Constraint_3.4b: x[0,0,0,4] + x[0,0,1,4] + x[0,0,2,4] + x[0,0,3,4]
   + x[0,0,4,4] - y[0,0,4] = 0
 Constraint_3.4c: x[0,0,4,1] + x[0,0,4,2] + x[0,0,4,3] + x[0,0,4,4]
   + x[0,0,4,5] - y[0,0,4] = 0
 Constraint_3.4a: x[1,0,0,4] + x[1,0,1,4] + x[1,0,2,4] + x[1,0,3,4]
   - x[1,0,4,1] - x[1,0,4,2] - x[1,0,4,3] - x[1,0,4,5] = 0
 Constraint_3.4b: x[1,0,0,4] + x[1,0,1,4] + x[1,0,2,4] + x[1,0,3,4]
   + x[1,0,4,4] - y[1,0,4] = 0
 Constraint_3.4c: x[1,0,4,1] + x[1,0,4,2] + x[1,0,4,3] + x[1,0,4,4]
   + x[1,0,4,5] - y[1,0,4] = 0
 Constraint_3.4a: x[0,1,0,1] - x[0,1,1,2] - x[0,1,1,3] - x[0,1,1,4]
   - x[0,1,1,5] + x[0,1,2,1] + x[0,1,3,1] + x[0,1,4,1] = 0
 Constraint_3.4b: x[0,1,0,1] + x[0,1,1,1] + x[0,1,2,1] + x[0,1,3,1]
   + x[0,1,4,1] - y[0,1,1] = 0
 Constraint_3.4c: x[0,1,1,1] + x[0,1,1,2] + x[0,1,1,3] + x[0,1,1,4]
   + x[0,1,1,5] - y[0,1,1] = 0
 Constraint_3.4a: x[1,1,0,1] - x[1,1,1,2] - x[1,1,1,3] - x[1,1,1,4]
   - x[1,1,1,5] + x[1,1,2,1] + x[1,1,3,1] + x[1,1,4,1] = 0
 Constraint_3.4b: x[1,1,0,1] + x[1,1,1,1] + x[1,1,2,1] + x[1,1,3,1]
   + x[1,1,4,1] - y[1,1,1] = 0
 Constraint_3.4c: x[1,1,1,1] + x[1,1,1,2] + x[1,1,1,3] + x[1,1,1,4]
   + x[1,1,1,5] - y[1,1,1] = 0
 Constraint_3.4a: x[0,1,0,2] + x[0,1,1,2] - x[0,1,2,1] - x[0,1,2,3]
   - x[0,1,2,4] - x[0,1,2,5] + x[0,1,3,2] + x[0,1,4,2] = 0
 Constraint_3.4b: x[0,1,0,2] + x[0,1,1,2] + x[0,1,2,2] + x[0,1,3,2]
   + x[0,1,4,2] - y[0,1,2] = 0
 Constraint_3.4c: x[0,1,2,1] + x[0,1,2,2] + x[0,1,2,3] + x[0,1,2,4]
   + x[0,1,2,5] - y[0,1,2] = 0
 Constraint_3.4a: x[1,1,0,2] + x[1,1,1,2] - x[1,1,2,1] - x[1,1,2,3]
   - x[1,1,2,4] - x[1,1,2,5] + x[1,1,3,2] + x[1,1,4,2] = 0
 Constraint_3.4b: x[1,1,0,2] + x[1,1,1,2] + x[1,1,2,2] + x[1,1,3,2]
   + x[1,1,4,2] - y[1,1,2] = 0
 Constraint_3.4c: x[1,1,2,1] + x[1,1,2,2] + x[1,1,2,3] + x[1,1,2,4]
   + x[1,1,2,5] - y[1,1,2] = 0
 Constraint_3.4a: x[0,1,0,3] + x[0,1,1,3] + x[0,1,2,3] - x[0,1,3,1]
   - x[0,1,3,2] - x[0,1,3,4] - x[0,1,3,5] + x[0,1,4,3] = 0
 Constraint_3.4b: x[0,1,0,3] + x[0,1,1,3] + x[0,1,2,3] + x[0,1,3,3]
   + x[0,1,4,3] - y[0,1,3] = 0
 Constraint_3.4c: x[0,1,3,1] + x[0,1,3,2] + x[0,1,3,3] + x[0,1,3,4]
   + x[0,1,3,5] - y[0,1,3] = 0
 Constraint_3.4a: x[1,1,0,3] + x[1,1,1,3] + x[1,1,2,3] - x[1,1,3,1]
   - x[1,1,3,2] - x[1,1,3,4] - x[1,1,3,5] + x[1,1,4,3] = 0
 Constraint_3.4b: x[1,1,0,3] + x[1,1,1,3] + x[1,1,2,3] + x[1,1,3,3]
   + x[1,1,4,3] - y[1,1,3] = 0
 Constraint_3.4c: x[1,1,3,1] + x[1,1,3,2] + x[1,1,3,3] + x[1,1,3,4]
   + x[1,1,3,5] - y[1,1,3] = 0
 Constraint_3.4a: x[0,1,0,4] + x[0,1,1,4] + x[0,1,2,4] + x[0,1,3,4]
   - x[0,1,4,1] - x[0,1,4,2] - x[0,1,4,3] - x[0,1,4,5] = 0
 Constraint_3.4b: x[0,1,0,4] + x[0,1,1,4] + x[0,1,2,4] + x[0,1,3,4]
   + x[0,1,4,4] - y[0,1,4] = 0
 Constraint_3.4c: x[0,1,4,1] + x[0,1,4,2] + x[0,1,4,3] + x[0,1,4,4]
   + x[0,1,4,5] - y[0,1,4] = 0
 Constraint_3.4a: x[1,1,0,4] + x[1,1,1,4] + x[1,1,2,4] + x[1,1,3,4]
   - x[1,1,4,1] - x[1,1,4,2] - x[1,1,4,3] - x[1,1,4,5] = 0
 Constraint_3.4b: x[1,1,0,4] + x[1,1,1,4] + x[1,1,2,4] + x[1,1,3,4]
   + x[1,1,4,4] - y[1,1,4] = 0
 Constraint_3.4c: x[1,1,4,1] + x[1,1,4,2] + x[1,1,4,3] + x[1,1,4,4]
   + x[1,1,4,5] - y[1,1,4] = 0
 Constraint_3.5: 3 x[0,0,0,1] + 6 x[0,0,0,2] + 6 x[0,0,0,3] + 3 x[0,0,0,4]
   + 4 x[0,0,1,2] + 5 x[0,0,1,3] + 3 x[0,0,1,4] + 3 x[0,0,1,5]
   + 4 x[0,0,2,1] + 3 x[0,0,2,3] + 5 x[0,0,2,4] + 6 x[0,0,2,5]
   + 5 x[0,0,3,1] + 3 x[0,0,3,2] + 4 x[0,0,3,4] + 6 x[0,0,3,5]
   + 3 x[0,0,4,1] + 5 x[0,0,4,2] + 4 x[0,0,4,3] + 3 x[0,0,4,5] <= 15
 Constraint_3.5: 3 x[1,0,0,1] + 6 x[1,0,0,2] + 6 x[1,0,0,3] + 3 x[1,0,0,4]
   + 4 x[1,0,1,2] + 5 x[1,0,1,3] + 3 x[1,0,1,4] + 3 x[1,0,1,5]
   + 4 x[1,0,2,1] + 3 x[1,0,2,3] + 5 x[1,0,2,4] + 6 x[1,0,2,5]
   + 5 x[1,0,3,1] + 3 x[1,0,3,2] + 4 x[1,0,3,4] + 6 x[1,0,3,5]
   + 3 x[1,0,4,1] + 5 x[1,0,4,2] + 4 x[1,0,4,3] + 3 x[1,0,4,5] <= 15
 Constraint_3.5: 3 x[0,1,0,1] + 6 x[0,1,0,2] + 6 x[0,1,0,3] + 3 x[0,1,0,4]
   + 4 x[0,1,1,2] + 5 x[0,1,1,3] + 3 x[0,1,1,4] + 3 x[0,1,1,5]
   + 4 x[0,1,2,1] + 3 x[0,1,2,3] + 5 x[0,1,2,4] + 6 x[0,1,2,5]
   + 5 x[0,1,3,1] + 3 x[0,1,3,2] + 4 x[0,1,3,4] + 6 x[0,1,3,5]
   + 3 x[0,1,4,1] + 5 x[0,1,4,2] + 4 x[0,1,4,3] + 3 x[0,1,4,5] <= 15
 Constraint_3.5: 3 x[1,1,0,1] + 6 x[1,1,0,2] + 6 x[1,1,0,3] + 3 x[1,1,0,4]
   + 4 x[1,1,1,2] + 5 x[1,1,1,3] + 3 x[1,1,1,4] + 3 x[1,1,1,5]
   + 4 x[1,1,2,1] + 3 x[1,1,2,3] + 5 x[1,1,2,4] + 6 x[1,1,2,5]
   + 5 x[1,1,3,1] + 3 x[1,1,3,2] + 4 x[1,1,3,4] + 6 x[1,1,3,5]
   + 3 x[1,1,4,1] + 5 x[1,1,4,2] + 4 x[1,1,4,3] + 3 x[1,1,4,5] <= 15
 Constraint_3.6a: u[0,0,1] >= 2
 Constraint_3.6b: u[0,0,1] <= 6
 Constraint_3.6a: u[1,0,1] >= 2
 Constraint_3.6b: u[1,0,1] <= 6
 Constraint_3.6a: u[0,0,2] >= 2
 Constraint_3.6b: u[0,0,2] <= 6
 Constraint_3.6a: u[1,0,2] >= 2
 Constraint_3.6b: u[1,0,2] <= 6
 Constraint_3.6a: u[0,0,3] >= 2
 Constraint_3.6b: u[0,0,3] <= 6
 Constraint_3.6a: u[1,0,3] >= 2
 Constraint_3.6b: u[1,0,3] <= 6
 Constraint_3.6a: u[0,0,4] >= 2
 Constraint_3.6b: u[0,0,4] <= 6
 Constraint_3.6a: u[1,0,4] >= 2
 Constraint_3.6b: u[1,0,4] <= 6
 Constraint_3.6a: u[0,0,5] >= 2
 Constraint_3.6b: u[0,0,5] <= 6
 Constraint_3.6a: u[1,0,5] >= 2
 Constraint_3.6b: u[1,0,5] <= 6
 Constraint_3.6a: u[0,1,1] >= 2
 Constraint_3.6b: u[0,1,1] <= 6
 Constraint_3.6a: u[1,1,1] >= 2
 Constraint_3.6b: u[1,1,1] <= 6
 Constraint_3.6a: u[0,1,2] >= 2
 Constraint_3.6b: u[0,1,2] <= 6
 Constraint_3.6a: u[1,1,2] >= 2
 Constraint_3.6b: u[1,1,2] <= 6
 Constraint_3.6a: u[0,1,3] >= 2
 Constraint_3.6b: u[0,1,3] <= 6
 Constraint_3.6a: u[1,1,3] >= 2
 Constraint_3.6b: u[1,1,3] <= 6
 Constraint_3.6a: u[0,1,4] >= 2
 Constraint_3.6b: u[0,1,4] <= 6
 Constraint_3.6a: u[1,1,4] >= 2
 Constraint_3.6b: u[1,1,4] <= 6
 Constraint_3.6a: u[0,1,5] >= 2
 Constraint_3.6b: u[0,1,5] <= 6
 Constraint_3.6a: u[1,1,5] >= 2
 Constraint_3.6b: u[1,1,5] <= 6
 Constraint_3.7: 5 x[0,0,1,1] <= 4
 Constraint_3.7: 5 x[1,0,1,1] <= 4
 Constraint_3.7: 5 x[0,0,1,2] + u[0,0,1] - u[0,0,2] <= 4
 Constraint_3.7: 5 x[1,0,1,2] + u[1,0,1] - u[1,0,2] <= 4
 Constraint_3.7: 5 x[0,0,1,3] + u[0,0,1] - u[0,0,3] <= 4
 Constraint_3.7: 5 x[1,0,1,3] + u[1,0,1] - u[1,0,3] <= 4
 Constraint_3.7: 5 x[0,0,1,4] + u[0,0,1] - u[0,0,4] <= 4
 Constraint_3.7: 5 x[1,0,1,4] + u[1,0,1] - u[1,0,4] <= 4
 Constraint_3.7: 5 x[0,0,1,5] + u[0,0,1] - u[0,0,5] <= 4
 Constraint_3.7: 5 x[1,0,1,5] + u[1,0,1] - u[1,0,5] <= 4
 Constraint_3.7: 5 x[0,0,2,1] - u[0,0,1] + u[0,0,2] <= 4
 Constraint_3.7: 5 x[1,0,2,1] - u[1,0,1] + u[1,0,2] <= 4
 Constraint_3.7: 5 x[0,0,2,2] <= 4
 Constraint_3.7: 5 x[1,0,2,2] <= 4
 Constraint_3.7: 5 x[0,0,2,3] + u[0,0,2] - u[0,0,3] <= 4
 Constraint_3.7: 5 x[1,0,2,3] + u[1,0,2] - u[1,0,3] <= 4
 Constraint_3.7: 5 x[0,0,2,4] + u[0,0,2] - u[0,0,4] <= 4
 Constraint_3.7: 5 x[1,0,2,4] + u[1,0,2] - u[1,0,4] <= 4
 Constraint_3.7: 5 x[0,0,2,5] + u[0,0,2] - u[0,0,5] <= 4
 Constraint_3.7: 5 x[1,0,2,5] + u[1,0,2] - u[1,0,5] <= 4
 Constraint_3.7: 5 x[0,0,3,1] - u[0,0,1] + u[0,0,3] <= 4
 Constraint_3.7: 5 x[1,0,3,1] - u[1,0,1] + u[1,0,3] <= 4
 Constraint_3.7: 5 x[0,0,3,2] - u[0,0,2] + u[0,0,3] <= 4
 Constraint_3.7: 5 x[1,0,3,2] - u[1,0,2] + u[1,0,3] <= 4
 Constraint_3.7: 5 x[0,0,3,3] <= 4
 Constraint_3.7: 5 x[1,0,3,3] <= 4
 Constraint_3.7: 5 x[0,0,3,4] + u[0,0,3] - u[0,0,4] <= 4
 Constraint_3.7: 5 x[1,0,3,4] + u[1,0,3] - u[1,0,4] <= 4
 Constraint_3.7: 5 x[0,0,3,5] + u[0,0,3] - u[0,0,5] <= 4
 Constraint_3.7: 5 x[1,0,3,5] + u[1,0,3] - u[1,0,5] <= 4
 Constraint_3.7: 5 x[0,0,4,1] - u[0,0,1] + u[0,0,4] <= 4
 Constraint_3.7: 5 x[1,0,4,1] - u[1,0,1] + u[1,0,4] <= 4
 Constraint_3.7: 5 x[0,0,4,2] - u[0,0,2] + u[0,0,4] <= 4
 Constraint_3.7: 5 x[1,0,4,2] - u[1,0,2] + u[1,0,4] <= 4
 Constraint_3.7: 5 x[0,0,4,3] - u[0,0,3] + u[0,0,4] <= 4
 Constraint_3.7: 5 x[1,0,4,3] - u[1,0,3] + u[1,0,4] <= 4
 Constraint_3.7: 5 x[0,0,4,4] <= 4
 Constraint_3.7: 5 x[1,0,4,4] <= 4
 Constraint_3.7: 5 x[0,0,4,5] + u[0,0,4] - u[0,0,5] <= 4
 Constraint_3.7: 5 x[1,0,4,5] + u[1,0,4] - u[1,0,5] <= 4
 Constraint_3.7: 5 x[0,0,5,1] - u[0,0,1] + u[0,0,5] <= 4
 Constraint_3.7: 5 x[1,0,5,1] - u[1,0,1] + u[1,0,5] <= 4
 Constraint_3.7: 5 x[0,0,5,2] - u[0,0,2] + u[0,0,5] <= 4
 Constraint_3.7: 5 x[1,0,5,2] - u[1,0,2] + u[1,0,5] <= 4
 Constraint_3.7: 5 x[0,0,5,3] - u[0,0,3] + u[0,0,5] <= 4
 Constraint_3.7: 5 x[1,0,5,3] - u[1,0,3] + u[1,0,5] <= 4
 Constraint_3.7: 5 x[0,0,5,4] - u[0,0,4] + u[0,0,5] <= 4
 Constraint_3.7: 5 x[1,0,5,4] - u[1,0,4] + u[1,0,5] <= 4
 Constraint_3.7: 5 x[0,0,5,5] <= 4
 Constraint_3.7: 5 x[1,0,5,5] <= 4
 Constraint_3.7: 5 x[0,1,1,1] <= 4
 Constraint_3.7: 5 x[1,1,1,1] <= 4
 Constraint_3.7: 5 x[0,1,1,2] + u[0,1,1] - u[0,1,2] <= 4
 Constraint_3.7: 5 x[1,1,1,2] + u[1,1,1] - u[1,1,2] <= 4
 Constraint_3.7: 5 x[0,1,1,3] + u[0,1,1] - u[0,1,3] <= 4
 Constraint_3.7: 5 x[1,1,1,3] + u[1,1,1] - u[1,1,3] <= 4
 Constraint_3.7: 5 x[0,1,1,4] + u[0,1,1] - u[0,1,4] <= 4
 Constraint_3.7: 5 x[1,1,1,4] + u[1,1,1] - u[1,1,4] <= 4
 Constraint_3.7: 5 x[0,1,1,5] + u[0,1,1] - u[0,1,5] <= 4
 Constraint_3.7: 5 x[1,1,1,5] + u[1,1,1] - u[1,1,5] <= 4
 Constraint_3.7: 5 x[0,1,2,1] - u[0,1,1] + u[0,1,2] <= 4
 Constraint_3.7: 5 x[1,1,2,1] - u[1,1,1] + u[1,1,2] <= 4
 Constraint_3.7: 5 x[0,1,2,2] <= 4
 Constraint_3.7: 5 x[1,1,2,2] <= 4
 Constraint_3.7: 5 x[0,1,2,3] + u[0,1,2] - u[0,1,3] <= 4
 Constraint_3.7: 5 x[1,1,2,3] + u[1,1,2] - u[1,1,3] <= 4
 Constraint_3.7: 5 x[0,1,2,4] + u[0,1,2] - u[0,1,4] <= 4
 Constraint_3.7: 5 x[1,1,2,4] + u[1,1,2] - u[1,1,4] <= 4
 Constraint_3.7: 5 x[0,1,2,5] + u[0,1,2] - u[0,1,5] <= 4
 Constraint_3.7: 5 x[1,1,2,5] + u[1,1,2] - u[1,1,5] <= 4
 Constraint_3.7: 5 x[0,1,3,1] - u[0,1,1] + u[0,1,3] <= 4
 Constraint_3.7: 5 x[1,1,3,1] - u[1,1,1] + u[1,1,3] <= 4
 Constraint_3.7: 5 x[0,1,3,2] - u[0,1,2] + u[0,1,3] <= 4
 Constraint_3.7: 5 x[1,1,3,2] - u[1,1,2] + u[1,1,3] <= 4
 Constraint_3.7: 5 x[0,1,3,3] <= 4
 Constraint_3.7: 5 x[1,1,3,3] <= 4
 Constraint_3.7: 5 x[0,1,3,4] + u[0,1,3] - u[0,1,4] <= 4
 Constraint_3.7: 5 x[1,1,3,4] + u[1,1,3] - u[1,1,4] <= 4
 Constraint_3.7: 5 x[0,1,3,5] + u[0,1,3] - u[0,1,5] <= 4
 Constraint_3.7: 5 x[1,1,3,5] + u[1,1,3] - u[1,1,5] <= 4
 Constraint_3.7: 5 x[0,1,4,1] - u[0,1,1] + u[0,1,4] <= 4
 Constraint_3.7: 5 x[1,1,4,1] - u[1,1,1] + u[1,1,4] <= 4
 Constraint_3.7: 5 x[0,1,4,2] - u[0,1,2] + u[0,1,4] <= 4
 Constraint_3.7: 5 x[1,1,4,2] - u[1,1,2] + u[1,1,4] <= 4
 Constraint_3.7: 5 x[0,1,4,3] - u[0,1,3] + u[0,1,4] <= 4
 Constraint_3.7: 5 x[1,1,4,3] - u[1,1,3] + u[1,1,4] <= 4
 Constraint_3.7: 5 x[0,1,4,4] <= 4
 Constraint_3.7: 5 x[1,1,4,4] <= 4
 Constraint_3.7: 5 x[0,1,4,5] + u[0,1,4] - u[0,1,5] <= 4
 Constraint_3.7: 5 x[1,1,4,5] + u[1,1,4] - u[1,1,5] <= 4
 Constraint_3.7: 5 x[0,1,5,1] - u[0,1,1] + u[0,1,5] <= 4
 Constraint_3.7: 5 x[1,1,5,1] - u[1,1,1] + u[1,1,5] <= 4
 Constraint_3.7: 5 x[0,1,5,2] - u[0,1,2] + u[0,1,5] <= 4
 Constraint_3.7: 5 x[1,1,5,2] - u[1,1,2] + u[1,1,5] <= 4
 Constraint_3.7: 5 x[0,1,5,3] - u[0,1,3] + u[0,1,5] <= 4
 Constraint_3.7: 5 x[1,1,5,3] - u[1,1,3] + u[1,1,5] <= 4
 Constraint_3.7: 5 x[0,1,5,4] - u[0,1,4] + u[0,1,5] <= 4
 Constraint_3.7: 5 x[1,1,5,4] - u[1,1,4] + u[1,1,5] <= 4
 Constraint_3.7: 5 x[0,1,5,5] <= 4
 Constraint_3.7: 5 x[1,1,5,5] <= 4
Bounds
Binaries
 x[0,0,0,0] x[0,0,0,1] x[0,0,0,2] x[0,0,0,3] x[0,0,0,4] x[0,0,0,5]
 x[0,0,1,0] x[0,0,1,1] x[0,0,1,2] x[0,0,1,3] x[0,0,1,4] x[0,0,1,5]
 x[0,0,2,0] x[0,0,2,1] x[0,0,2,2] x[0,0,2,3] x[0,0,2,4] x[0,0,2,5]
 x[0,0,3,0] x[0,0,3,1] x[0,0,3,2] x[0,0,3,3] x[0,0,3,4] x[0,0,3,5]
 x[0,0,4,0] x[0,0,4,1] x[0,0,4,2] x[0,0,4,3] x[0,0,4,4] x[0,0,4,5]
 x[0,0,5,0] x[0,0,5,1] x[0,0,5,2] x[0,0,5,3] x[0,0,5,4] x[0,0,5,5]
 x[0,1,0,0] x[0,1,0,1] x[0,1,0,2] x[0,1,0,3] x[0,1,0,4] x[0,1,0,5]
 x[0,1,1,0] x[0,1,1,1] x[0,1,1,2] x[0,1,1,3] x[0,1,1,4] x[0,1,1,5]
 x[0,1,2,0] x[0,1,2,1] x[0,1,2,2] x[0,1,2,3] x[0,1,2,4] x[0,1,2,5]
 x[0,1,3,0] x[0,1,3,1] x[0,1,3,2] x[0,1,3,3] x[0,1,3,4] x[0,1,3,5]
 x[0,1,4,0] x[0,1,4,1] x[0,1,4,2] x[0,1,4,3] x[0,1,4,4] x[0,1,4,5]
 x[0,1,5,0] x[0,1,5,1] x[0,1,5,2] x[0,1,5,3] x[0,1,5,4] x[0,1,5,5]
 x[1,0,0,0] x[1,0,0,1] x[1,0,0,2] x[1,0,0,3] x[1,0,0,4] x[1,0,0,5]
 x[1,0,1,0] x[1,0,1,1] x[1,0,1,2] x[1,0,1,3] x[1,0,1,4] x[1,0,1,5]
 x[1,0,2,0] x[1,0,2,1] x[1,0,2,2] x[1,0,2,3] x[1,0,2,4] x[1,0,2,5]
 x[1,0,3,0] x[1,0,3,1] x[1,0,3,2] x[1,0,3,3] x[1,0,3,4] x[1,0,3,5]
 x[1,0,4,0] x[1,0,4,1] x[1,0,4,2] x[1,0,4,3] x[1,0,4,4] x[1,0,4,5]
 x[1,0,5,0] x[1,0,5,1] x[1,0,5,2] x[1,0,5,3] x[1,0,5,4] x[1,0,5,5]
 x[1,1,0,0] x[1,1,0,1] x[1,1,0,2] x[1,1,0,3] x[1,1,0,4] x[1,1,0,5]
 x[1,1,1,0] x[1,1,1,1] x[1,1,1,2] x[1,1,1,3] x[1,1,1,4] x[1,1,1,5]
 x[1,1,2,0] x[1,1,2,1] x[1,1,2,2] x[1,1,2,3] x[1,1,2,4] x[1,1,2,5]
 x[1,1,3,0] x[1,1,3,1] x[1,1,3,2] x[1,1,3,3] x[1,1,3,4] x[1,1,3,5]
 x[1,1,4,0] x[1,1,4,1] x[1,1,4,2] x[1,1,4,3] x[1,1,4,4] x[1,1,4,5]
 x[1,1,5,0] x[1,1,5,1] x[1,1,5,2] x[1,1,5,3] x[1,1,5,4] x[1,1,5,5] y[0,0,0]
 y[0,0,1] y[0,0,2] y[0,0,3] y[0,0,4] y[0,0,5] y[0,1,0] y[0,1,1] y[0,1,2]
 y[0,1,3] y[0,1,4] y[0,1,5] y[1,0,0] y[1,0,1] y[1,0,2] y[1,0,3] y[1,0,4]
 y[1,0,5] y[1,1,0] y[1,1,1] y[1,1,2] y[1,1,3] y[1,1,4] y[1,1,5]
Generals
 u[0,0,0] u[0,0,1] u[0,0,2] u[0,0,3] u[0,0,4] u[0,0,5] u[0,1,0] u[0,1,1]
 u[0,1,2] u[0,1,3] u[0,1,4] u[0,1,5] u[1,0,0] u[1,0,1] u[1,0,2] u[1,0,3]
 u[1,0,4] u[1,0,5] u[1,1,0] u[1,1,1] u[1,1,2] u[1,1,3] u[1,1,4] u[1,1,5]
End
